\ENCODING=ISO-8859-1
\Problem name: 

Maximize
 obj: x1 + x2 + x3 + x4 + x5 + x6 + x7 + x8 + x9 + x10 + x11 + x12 + x13 + x14
      + x15 + x16 + x17 + x18 + x19 + x20 + x21 + x22 + x23 + x24 + x25 + x26
      + x27 + x28 + x29 + x30 + x31 + x32 + x33 + x34 + x35 + x36 + x37 + x38
      + x39 + x40 + x41 + x42 + x43 + x44 + x45 + x46 + x47 + x48 + x49 + x50
      + x51 + x52 + x53 + x54 + x55 + x56 + x57 + x58 + x59 + x60 + x61 + x62
      + x63 + x64 + x65 + x66 + x67 + x68 + x69 + x70 + x71 + x72 + x73 + x74
      + x75 + x76 + x77 + x78 + x79 + x80 + x81 + x82 + x83 + x84 + x85 + x86
      + x87 + x88 + x89 + x90 + x91 + x92 + x93 + x94 + x95 + x96 + x97 + x98
      + x99 + x100 + x101 + x102 + x103 + x104 + x105 + x106 + x107 + x108
      + x109 + x110 + x111 + x112 + x113 + x114 + x115 + x116 + x117 + x118
      + x119 + x120 + x121 + x122 + x123 + x124 + x125 + x126 + x127 + x128
      + x129 + x130 + x131 + x132 + x133 + x134 + x135 + x136 + x137 + x138
      + x139 + x140 + x141 + x142 + x143 + x144 + x145 + x146 + x147 + x148
      + x149 + x150 + x151 + x152 + x153 + x154 + x155 + x156 + x157 + x158
      + x159 + x160 + x161 + x162 + x163 + x164 + x165 + x166 + x167 + x168
      + x169 + x170 + x171 + x172 + x173 + x174 + x175
Subject To
 clq1:   x26 + x96 + x151 <= 1
 clq2:   x53 + x68 + x130 <= 1
 clq3:   x54 + x145 + x173 <= 1
 clq4:   x11 + x25 + x108 <= 1
 clq5:   x84 + x122 + x148 <= 1
 clq6:   x18 + x45 + x113 <= 1
 clq7:   x30 + x40 + x91 <= 1
 clq8:   x65 + x77 + x82 <= 1
 clq9:   x3 + x34 + x84 + x160 <= 1
 clq10:  x48 + x110 + x132 <= 1
 clq11:  x28 + x100 + x111 <= 1
 clq12:  x106 + x147 + x175 <= 1
 clq13:  x41 + x80 + x106 <= 1
 clq14:  x29 + x70 <= 1
 clq15:  x37 + x55 + x118 <= 1
 clq16:  x73 + x105 + x153 <= 1
 clq17:  x32 + x37 + x155 <= 1
 clq18:  x65 + x109 + x139 <= 1
 clq19:  x30 + x80 + x164 <= 1
 clq20:  x70 + x127 + x152 <= 1
 clq21:  x65 + x94 + x117 <= 1
 clq22:  x139 + x162 <= 1
 clq23:  x1 + x28 + x127 + x152 <= 1
 clq24:  x9 + x111 + x125 <= 1
 clq25:  x35 + x85 + x119 <= 1
 clq26:  x20 + x59 + x135 <= 1
 clq27:  x12 + x142 + x150 <= 1
 clq28:  x39 + x144 <= 1
 clq29:  x74 + x133 + x158 <= 1
 clq30:  x28 + x100 + x164 <= 1
 clq31:  x18 + x139 + x142 <= 1
 clq32:  x56 + x96 + x151 <= 1
 clq33:  x9 + x45 + x66 <= 1
 clq34:  x44 + x86 <= 1
 clq35:  x10 + x23 + x41 <= 1
 clq36:  x16 + x45 + x52 <= 1
 clq37:  x45 + x79 + x134 <= 1
 clq38:  x60 + x104 + x129 <= 1
 clq39:  x67 + x72 + x168 <= 1
 clq40:  x139 + x145 + x147 <= 1
 clq41:  x16 + x141 + x165 <= 1
 clq42:  x53 + x84 + x122 <= 1
 clq43:  x9 + x15 + x43 <= 1
 clq44:  x97 + x149 + x153 <= 1
 clq45:  x77 + x107 <= 1
 clq46:  x82 + x118 <= 1
 clq47:  x125 + x128 + x171 <= 1
 clq48:  x43 + x106 + x142 <= 1
 clq49:  x21 + x45 + x131 <= 1
 clq50:  x32 + x42 + x64 <= 1
 clq51:  x6 + x16 + x83 <= 1
 clq52:  x68 + x130 + x158 <= 1
 clq53:  x4 + x159 + x168 <= 1
 clq54:  x12 + x86 + x144 <= 1
 clq55:  x40 + x99 + x162 <= 1
 clq56:  x28 + x35 + x40 + x99 <= 1
 clq57:  x37 + x95 + x121 <= 1
 clq58:  x85 + x104 <= 1
 clq59:  x48 + x110 + x141 + x143 <= 1
 clq60:  x7 + x159 + x168 <= 1
 clq61:  x5 + x16 + x57 + x89 <= 1
 clq62:  x41 + x53 + x106 + x168 <= 1
 clq63:  x2 + x10 + x91 <= 1
 clq64:  x5 + x89 + x139 <= 1
 clq65:  x12 + x107 + x150 <= 1
 clq66:  x107 + x120 <= 1
 clq67:  x86 + x114 <= 1
 clq68:  x55 + x120 + x161 <= 1
 clq69:  x30 + x57 + x91 <= 1
 clq70:  x32 + x83 + x108 <= 1
 clq71:  x27 + x70 + x131 <= 1
 clq72:  x23 + x41 + x81 <= 1
 clq73:  x16 + x33 + x47 + x166 <= 1
 clq74:  x18 + x140 <= 1
 clq75:  x19 + x157 <= 1
 clq76:  x27 + x72 + x97 <= 1
 clq77:  x35 + x73 + x99 <= 1
 clq78:  x75 + x83 <= 1
 clq79:  x24 + x79 + x108 <= 1
 clq80:  x44 + x159 <= 1
 clq81:  x64 + x102 + x138 <= 1
 clq82:  x4 + x168 + x174 <= 1
 clq83:  x80 + x123 + x142 <= 1
 clq84:  x12 + x15 + x104 <= 1
 clq85:  x61 + x154 + x166 <= 1
 clq86:  x1 + x28 + x142 <= 1
 clq87:  x76 + x78 <= 1
 clq88:  x67 + x79 + x84 <= 1
 clq89:  x34 + x149 + x153 <= 1
 clq90:  x38 + x72 + x140 <= 1
 clq91:  x72 + x105 + x140 <= 1
 clq92:  x49 + x163 <= 1
 clq93:  x127 + x152 + x160 <= 1
 clq94:  x110 + x134 + x171 <= 1
 clq95:  x19 + x63 + x98 <= 1
 clq96:  x87 + x91 + x157 <= 1
 clq97:  x3 + x62 + x121 <= 1
 clq98:  x10 + x23 + x174 <= 1
 clq99:  x5 + x57 + x89 + x92 <= 1
 clq100: x46 + x136 + x143 <= 1
 clq101: x37 + x77 <= 1
 clq102: x138 + x153 <= 1
 clq103: x68 + x94 <= 1
 clq104: x24 + x116 + x148 <= 1
 clq105: x24 + x87 <= 1
 clq106: x58 + x145 + x172 <= 1
 clq107: x116 + x145 <= 1
 clq108: x43 + x155 <= 1
 clq109: x13 + x98 + x149 <= 1
 clq110: x29 + x69 + x166 <= 1
 clq111: x83 + x108 + x127 <= 1
 clq112: x30 + x80 + x132 <= 1
 clq113: x102 + x104 + x112 <= 1
 clq114: x4 + x119 + x162 <= 1
 clq115: x58 + x159 <= 1
 clq116: x56 + x144 + x151 <= 1
 clq117: x24 + x99 <= 1
 clq118: x58 + x90 + x172 <= 1
 clq119: x52 + x109 + x164 <= 1
 clq120: x30 + x84 + x148 <= 1
 clq121: x61 + x83 + x97 <= 1
 clq122: x134 + x145 <= 1
 clq123: x120 + x160 <= 1
 clq124: x38 + x144 <= 1
 clq125: x13 + x30 + x91 <= 1
 clq126: x24 + x38 + x108 <= 1
 clq127: x15 + x104 + x112 <= 1
 clq128: x8 + x10 + x16 <= 1
 clq129: x43 + x48 + x113 <= 1
 clq130: x43 + x91 + x139 <= 1
 clq131: x75 + x76 <= 1
 clq132: x34 + x132 + x134 <= 1
 clq133: x16 + x54 + x57 <= 1
 clq134: x12 + x34 + x150 <= 1
 clq135: x52 + x114 + x143 <= 1
 clq136: x11 + x56 + x135 <= 1
 clq137: x74 + x94 + x135 <= 1
 clq138: x72 + x164 <= 1
 clq139: x68 + x158 + x159 <= 1
 clq140: x38 + x152 <= 1
 clq141: x14 + x17 + x64 <= 1
 clq142: x60 + x162 + x164 <= 1
 clq143: x78 + x114 + x143 <= 1
 clq144: x1 + x114 + x125 <= 1
 clq145: x30 + x129 <= 1
 clq146: x76 + x141 + x149 <= 1
 clq147: x50 + x94 + x135 <= 1
 clq148: x7 + x27 + x131 <= 1
 clq149: x59 + x80 + x165 <= 1
 clq150: x15 + x52 + x123 <= 1
 clq151: x84 + x157 <= 1
 clq152: x1 + x28 + x37 <= 1
 clq153: x82 + x125 <= 1
 clq154: x133 + x141 + x158 <= 1
 clq155: x56 + x62 + x104 <= 1
 clq156: x15 + x143 + x170 <= 1
 clq157: x29 + x45 + x87 <= 1
 clq158: x42 + x60 <= 1
 clq159: x27 + x71 + x144 <= 1
 clq160: x73 + x105 + x144 <= 1
 clq161: x17 + x26 + x151 <= 1
 clq162: x4 + x132 + x147 <= 1
 clq163: x56 + x104 + x148 <= 1
 clq164: x10 + x23 + x147 <= 1
 clq165: x61 + x123 + x142 <= 1
 clq166: x43 + x59 + x108 <= 1
 clq167: x50 + x72 + x110 + x165 <= 1
 clq168: x52 + x162 + x164 <= 1
 clq169: x22 + x50 + x136 <= 1
 clq170: x30 + x135 <= 1
 clq171: x29 + x44 + x143 <= 1
 clq172: x42 + x74 + x140 <= 1
 clq173: x50 + x135 + x157 <= 1
 clq174: x33 + x88 + x110 <= 1
 clq175: x22 + x54 <= 1
 clq176: x39 + x45 + x115 + x128 <= 1
 clq177: x133 + x141 + x150 <= 1
 clq178: x69 + x96 + x106 + x151 <= 1
 clq179: x105 + x114 <= 1
 clq180: x75 + x154 <= 1
 clq181: x20 + x55 + x135 <= 1
 clq182: x54 + x118 + x161 <= 1
 clq183: x66 + x144 + x162 <= 1
 clq184: x57 + x85 + x88 <= 1
 clq185: x148 + x154 <= 1
 clq186: x7 + x46 <= 1
 clq187: x43 + x153 <= 1
 clq188: x23 + x52 + x128 <= 1
 clq189: x98 + x108 + x149 <= 1
 clq190: x149 + x169 <= 1
 clq191: x72 + x110 + x122 <= 1
 clq192: x72 + x140 + x165 <= 1
 clq193: x33 + x160 + x166 <= 1
 clq194: x10 + x91 + x118 <= 1
 clq195: x12 + x131 <= 1
 clq196: x158 + x166 <= 1
 clq197: x35 + x59 + x174 <= 1
 clq198: x43 + x142 + x150 <= 1
 clq199: x101 + x138 <= 1
 clq200: x10 + x73 + x91 <= 1
 clq201: x11 + x158 <= 1
 clq202: x48 + x128 + x132 <= 1
 clq203: x50 + x175 <= 1
 clq204: x41 + x80 + x161 <= 1
 clq205: x10 + x40 + x91 <= 1
 clq206: x9 + x37 + x149 <= 1
 clq207: x5 + x152 <= 1
 clq208: x45 + x79 + x150 <= 1
 clq209: x100 + x104 + x165 <= 1
 clq210: x60 + x155 + x162 <= 1
 clq211: x113 + x173 <= 1
 clq212: x57 + x80 + x121 <= 1
 clq213: x41 + x95 + x100 + x134 <= 1
 clq214: x16 + x100 + x105 <= 1
 clq215: x6 + x169 <= 1
 clq216: x42 + x67 + x154 <= 1
 clq217: x57 + x159 <= 1
 clq218: x25 + x47 + x127 <= 1
 clq219: x146 + x156 + x174 <= 1
 clq220: x39 + x58 + x92 <= 1
 clq221: x91 + x138 + x139 <= 1
 clq222: x7 + x74 + x133 <= 1
 clq223: x16 + x74 + x94 <= 1
 clq224: x77 + x79 + x82 <= 1
 clq225: x42 + x82 <= 1
 clq226: x16 + x73 + x105 <= 1
 clq227: x48 + x49 + x56 <= 1
 clq228: x102 + x111 <= 1
 clq229: x22 + x75 <= 1
 clq230: x16 + x94 + x141 <= 1
 clq231: x41 + x81 + x154 <= 1
 clq232: x4 + x147 + x175 <= 1
 clq233: x90 + x111 + x166 <= 1
 clq234: x72 + x132 + x150 <= 1
 clq235: x36 + x63 + x171 <= 1
 clq236: x17 + x25 + x39 <= 1
 clq237: x25 + x43 + x108 <= 1
 clq238: x18 + x159 <= 1
 clq239: x2 + x88 + x110 <= 1
 clq240: x28 + x117 <= 1
 clq241: x31 + x33 + x36 <= 1
 clq242: x2 + x152 + x155 <= 1
 clq243: x77 + x105 + x153 <= 1
 clq244: x14 + x52 + x109 <= 1
 clq245: x27 + x121 <= 1
 clq246: x33 + x41 + x129 <= 1
 clq247: x98 + x108 + x123 <= 1
 clq248: x66 + x74 + x125 <= 1
 clq249: x107 + x174 <= 1
 clq250: x47 + x56 + x151 <= 1
 clq251: x58 + x90 + x95 <= 1
 clq252: x10 + x16 + x165 <= 1
 clq253: x55 + x144 <= 1
 clq254: x83 + x108 + x112 <= 1
 clq255: x16 + x57 + x83 <= 1
 clq256: x1 + x10 + x73 + x170 <= 1
 clq257: x60 + x97 + x131 <= 1
 clq258: x61 + x83 + x166 <= 1
 clq259: x8 + x53 + x84 <= 1
 clq260: x93 + x119 <= 1
 clq261: x29 + x117 + x167 <= 1
 clq262: x55 + x118 + x158 <= 1
 clq263: x21 + x145 <= 1
 clq264: x4 + x17 + x169 <= 1
 clq265: x7 + x129 + x159 <= 1
 clq266: x30 + x84 + x126 <= 1
 clq267: x51 + x79 + x173 <= 1
 clq268: x68 + x156 <= 1
 clq269: x106 + x107 <= 1
 clq270: x87 + x88 + x168 <= 1
 clq271: x24 + x63 + x116 <= 1
 clq272: x3 + x84 + x124 <= 1
 clq273: x4 + x55 + x169 <= 1
 clq274: x20 + x76 + x133 <= 1
 clq275: x11 + x138 + x139 <= 1
 clq276: x27 + x101 + x136 <= 1
 clq277: x40 + x70 <= 1
 clq278: x16 + x60 <= 1
 clq279: x60 + x130 + x155 <= 1
 clq280: x65 + x139 + x146 <= 1
 clq281: x39 + x41 <= 1
 clq282: x65 + x92 + x164 <= 1
 clq283: x59 + x61 + x154 <= 1
 clq284: x30 + x101 + x152 <= 1
 clq285: x60 + x97 + x155 <= 1
 clq286: x33 + x121 <= 1
 clq287: x14 + x17 + x46 <= 1
 clq288: x10 + x97 + x165 <= 1
 clq289: x50 + x115 + x154 <= 1
 clq290: x110 + x136 + x143 <= 1
 clq291: x120 + x143 <= 1
 clq292: x120 + x165 <= 1
 clq293: x42 + x110 <= 1
 clq294: x37 + x57 + x88 <= 1
 clq295: x14 + x68 + x73 <= 1
 clq296: x115 + x140 + x168 <= 1
 clq297: x45 + x66 + x170 <= 1
 clq298: x72 + x160 + x166 <= 1
 clq299: x3 + x44 <= 1
 clq300: x18 + x108 <= 1
 clq301: x48 + x113 + x161 <= 1
 clq302: x131 + x158 <= 1
 clq303: x5 + x46 <= 1
 clq304: x77 + x103 <= 1
 clq305: x74 + x123 <= 1
 clq306: x19 + x139 + x156 <= 1
 clq307: x65 + x74 + x88 + x94 <= 1
 clq308: x89 + x122 + x137 <= 1
 clq309: x44 + x156 <= 1
 clq310: x7 + x40 <= 1
 clq311: x54 + x118 + x158 <= 1
 clq312: x11 + x38 + x108 <= 1
 clq313: x4 + x66 + x162 <= 1
 clq314: x80 + x112 + x132 <= 1
 clq315: x36 + x84 + x122 <= 1
 clq316: x51 + x61 + x142 <= 1
 clq317: x22 + x122 <= 1
 clq318: x15 + x118 + x143 <= 1
 clq319: x47 + x56 + x104 <= 1
 clq320: x81 + x129 + x146 <= 1
 clq321: x19 + x81 + x150 <= 1
 clq322: x27 + x124 <= 1
 clq323: x21 + x94 + x141 <= 1
 clq324: x66 + x89 <= 1
 clq325: x28 + x45 + x67 <= 1
 clq326: x14 + x134 + x171 <= 1
 clq327: x21 + x78 + x115 <= 1
 clq328: x2 + x88 + x152 <= 1
 clq329: x67 + x79 + x89 <= 1
 clq330: x12 + x93 <= 1
 clq331: x87 + x124 <= 1
 clq332: x72 + x122 + x168 <= 1
 clq333: x62 + x118 <= 1
 clq334: x1 + x22 + x102 <= 1
 clq335: x8 + x36 + x131 <= 1
 clq336: x58 + x106 + x140 <= 1
 clq337: x128 + x145 + x172 <= 1
 clq338: x19 + x22 <= 1
 clq339: x4 + x88 + x168 <= 1
 clq340: x23 + x41 + x77 <= 1
 clq341: x119 + x134 + x162 <= 1
 clq342: x2 + x32 + x155 <= 1
 clq343: x17 + x105 + x116 <= 1
 clq344: x109 + x139 + x147 <= 1
 clq345: x12 + x80 + x142 <= 1
 clq346: x41 + x55 + x169 <= 1
 clq347: x75 + x165 <= 1
 clq348: x84 + x139 <= 1
 clq349: x17 + x26 + x126 <= 1
 clq350: x107 + x149 <= 1
 clq351: x60 + x97 + x132 <= 1
 clq352: x2 + x10 + x49 <= 1
 clq353: x114 + x121 + x143 <= 1
 clq354: x79 + x108 + x112 + x134 <= 1
 clq355: x120 + x157 <= 1
 clq356: x2 + x152 + x154 <= 1
 clq357: x12 + x18 + x107 <= 1
 clq358: x81 + x129 + x173 <= 1
 clq359: x62 + x72 + x160 <= 1
 clq360: x42 + x111 + x116 <= 1
 clq361: x46 + x67 <= 1
 clq362: x77 + x82 + x93 <= 1
 clq363: x15 + x112 + x171 <= 1
 clq364: x38 + x94 + x135 <= 1
 clq365: x45 + x86 <= 1
 clq366: x9 + x174 <= 1
 clq367: x21 + x26 + x115 <= 1
 clq368: x3 + x171 <= 1
 clq369: x95 + x122 <= 1
 clq370: x7 + x24 + x93 <= 1
 clq371: x44 + x92 + x143 <= 1
 clq372: x63 + x77 <= 1
 clq373: x11 + x95 <= 1
 clq374: x14 + x45 + x52 <= 1
 clq375: x40 + x64 + x103 <= 1
 clq376: x20 + x27 + x101 <= 1
 clq377: x56 + x122 + x148 <= 1
 clq378: x25 + x44 + x47 <= 1
 clq379: x36 + x170 <= 1
 clq380: x33 + x41 + x161 <= 1
 clq381: x68 + x130 + x155 <= 1
 clq382: x11 + x32 + x139 <= 1
 clq383: x91 + x134 + x161 <= 1
 clq384: x124 + x137 + x153 <= 1
 clq385: x67 + x108 + x126 <= 1
 clq386: x3 + x20 + x62 <= 1
 clq387: x117 + x125 + x126 <= 1
 clq388: x39 + x52 + x109 + x173 <= 1
 clq389: x23 + x84 + x174 <= 1
 clq390: x10 + x149 + x175 <= 1
 clq391: x96 + x108 <= 1
 clq392: x127 + x139 <= 1
 clq393: x16 + x102 + x138 <= 1
 clq394: x20 + x57 <= 1
 clq395: x26 + x70 + x90 <= 1
 clq396: x47 + x117 + x147 <= 1
 clq397: x93 + x117 <= 1
 clq398: x28 + x60 + x164 <= 1
 clq399: x48 + x89 + x130 <= 1
 clq400: x3 + x61 + x91 <= 1
 clq401: x9 + x43 + x66 <= 1
 clq402: x26 + x70 + x115 <= 1
 clq403: x81 + x87 <= 1
 clq404: x18 + x45 + x99 <= 1
 clq405: x40 + x86 + x109 <= 1
 clq406: x1 + x74 + x127 <= 1
 clq407: x4 + x171 <= 1
 clq408: x39 + x109 + x125 <= 1
 clq409: x64 + x75 + x139 <= 1
 clq410: x65 + x150 + x171 <= 1
 clq411: x32 + x108 + x134 <= 1
 clq412: x5 + x53 + x146 <= 1
 clq413: x45 + x50 + x115 + x157 <= 1
 clq414: x4 + x17 + x162 <= 1
 clq415: x94 + x169 <= 1
 clq416: x72 + x97 + x132 <= 1
 clq417: x59 + x108 + x134 <= 1
 clq418: x70 + x130 <= 1
 clq419: x12 + x34 + x163 <= 1
 clq420: x135 + x159 <= 1
 clq421: x116 + x168 <= 1
 clq422: x29 + x135 + x143 <= 1
 clq423: x36 + x136 + x169 <= 1
 clq424: x1 + x58 + x126 <= 1
 clq425: x98 + x136 <= 1
 clq426: x12 + x15 + x170 <= 1
 clq427: x23 + x82 + x113 <= 1
 clq428: x5 + x58 + x92 <= 1
 clq429: x21 + x106 + x167 <= 1
 clq430: x12 + x23 + x72 <= 1
 clq431: x64 + x109 + x125 <= 1
 clq432: x14 + x41 + x134 <= 1
 clq433: x2 + x86 + x109 <= 1
 clq434: x100 + x111 + x165 <= 1
 clq435: x13 + x132 + x140 <= 1
 clq436: x105 + x116 + x130 <= 1
 clq437: x33 + x76 + x166 <= 1
 clq438: x49 + x115 + x168 <= 1
 clq439: x7 + x115 + x168 <= 1
 clq440: x10 + x87 + x170 <= 1
 clq441: x133 + x148 + x173 <= 1
 clq442: x56 + x104 + x129 <= 1
 clq443: x47 + x106 + x147 <= 1
 clq444: x53 + x122 + x168 <= 1
 clq445: x49 + x65 + x82 <= 1
 clq446: x115 + x162 <= 1
 clq447: x44 + x103 + x157 <= 1
 clq448: x84 + x133 + x148 <= 1
 clq449: x110 + x134 + x143 <= 1
 clq450: x8 + x129 + x138 <= 1
 clq451: x28 + x123 + x152 <= 1
 clq452: x28 + x104 + x142 <= 1
 clq453: x82 + x138 <= 1
 clq454: x40 + x78 + x143 <= 1
 clq455: x13 + x132 + x173 <= 1
 clq456: x97 + x109 + x153 <= 1
 clq457: x80 + x142 + x172 <= 1
 clq458: x101 + x141 <= 1
 clq459: x43 + x48 + x56 <= 1
 clq460: x87 + x103 + x157 <= 1
 clq461: x72 + x143 + x149 <= 1
 clq462: x21 + x100 <= 1
 clq463: x142 + x157 <= 1
 clq464: x36 + x63 + x169 <= 1
 clq465: x60 + x104 + x114 <= 1
 clq466: x69 + x93 <= 1
 clq467: x66 + x80 <= 1
 clq468: x66 + x78 + x170 <= 1
 clq469: x111 + x125 + x126 <= 1
 clq470: x27 + x45 + x131 <= 1
 clq471: x44 + x85 + x103 <= 1
 clq472: x20 + x53 <= 1
 clq473: x78 + x85 <= 1
 clq474: x16 + x83 + x108 <= 1
 clq475: x9 + x45 + x161 <= 1
 clq476: x60 + x107 + x155 <= 1
 clq477: x108 + x127 + x160 <= 1
 clq478: x95 + x96 + x97 <= 1
 clq479: x69 + x111 + x166 <= 1
 clq480: x87 + x90 + x95 <= 1
 clq481: x33 + x70 + x76 <= 1
 clq482: x28 + x31 + x92 <= 1
 clq483: x17 + x101 + x152 <= 1
 clq484: x64 + x75 + x163 <= 1
 clq485: x2 + x116 <= 1
 clq486: x73 + x92 <= 1
 clq487: x145 + x172 + x175 <= 1
 clq488: x69 + x85 + x166 <= 1
 clq489: x45 + x77 + x79 <= 1
 clq490: x25 + x46 + x143 <= 1
 clq491: x94 + x117 + x125 + x128 <= 1
 clq492: x42 + x64 + x67 <= 1
 clq493: x77 + x124 + x153 <= 1
 clq494: x7 + x41 + x129 <= 1
 clq495: x26 + x66 + x70 + x138 <= 1
 clq496: x66 + x69 + x100 <= 1
 clq497: x65 + x85 + x88 <= 1
 clq498: x18 + x29 + x45 <= 1
 clq499: x114 + x125 + x128 <= 1
 clq500: x35 + x133 + x141 <= 1
 clq501: x31 + x87 + x91 <= 1
 clq502: x4 + x49 + x123 <= 1
 clq503: x15 + x43 + x118 <= 1
 clq504: x78 + x139 <= 1
 clq505: x77 + x102 <= 1
 clq506: x10 + x171 <= 1
 clq507: x41 + x78 + x96 <= 1
 clq508: x64 + x103 + x157 <= 1
 clq509: x22 + x99 + x105 <= 1
 clq510: x20 + x27 + x49 <= 1
 clq511: x107 + x118 <= 1
 clq512: x1 + x93 + x153 <= 1
 clq513: x69 + x111 + x141 <= 1
 clq514: x15 + x115 <= 1
 clq515: x29 + x69 + x169 <= 1
 clq516: x14 + x45 + x153 <= 1
 clq517: x129 + x172 <= 1
 clq518: x22 + x62 <= 1
 clq519: x127 + x175 <= 1
 clq520: x68 + x100 + x149 <= 1
 clq521: x67 + x94 <= 1
 clq522: x62 + x79 + x112 <= 1
 clq523: x56 + x76 <= 1
 clq524: x49 + x65 + x168 <= 1
 clq525: x24 + x123 + x148 <= 1
 clq526: x18 + x110 + x139 <= 1
 clq527: x16 + x138 + x166 <= 1
 clq528: x86 + x120 <= 1
 clq529: x25 + x43 + x44 <= 1
 clq530: x59 + x108 + x174 <= 1
 clq531: x22 + x49 <= 1
 clq532: x31 + x63 + x71 <= 1
 clq533: x7 + x13 <= 1
 clq534: x18 + x111 <= 1
 clq535: x13 + x35 + x171 <= 1
 clq536: x20 + x135 + x157 <= 1
 clq537: x58 + x103 + x126 <= 1
 clq538: x14 + x30 + x132 <= 1
 clq539: x124 + x153 + x175 <= 1
 clq540: x6 + x79 + x134 <= 1
 clq541: x7 + x47 <= 1
 clq542: x15 + x19 + x63 <= 1
 clq543: x74 + x88 + x140 <= 1
 clq544: x20 + x27 + x70 <= 1
 clq545: x29 + x87 + x88 <= 1
 clq546: x57 + x80 + x172 <= 1
 clq547: x6 + x110 + x134 <= 1
 clq548: x104 + x137 <= 1
 clq549: x51 + x151 <= 1
 clq550: x121 + x168 <= 1
 clq551: x6 + x90 <= 1
 clq552: x49 + x82 + x172 <= 1
 clq553: x20 + x71 + x135 <= 1
 clq554: x59 + x134 + x135 <= 1
 clq555: x65 + x94 + x139 <= 1
 clq556: x2 + x8 + x10 + x131 <= 1
 clq557: x84 + x160 + x166 <= 1
 clq558: x20 + x62 + x133 <= 1
 clq559: x56 + x144 + x174 <= 1
 clq560: x64 + x144 + x175 <= 1
 clq561: x64 + x138 + x174 <= 1
 clq562: x2 + x109 + x164 <= 1
 clq563: x102 + x128 <= 1
 clq564: x21 + x29 + x45 <= 1
 clq565: x46 + x172 <= 1
 clq566: x17 + x105 + x129 <= 1
 clq567: x9 + x124 + x137 <= 1
 clq568: x32 + x37 + x121 <= 1
 clq569: x20 + x81 + x165 <= 1
 clq570: x53 + x141 <= 1
 clq571: x72 + x138 + x139 <= 1
 clq572: x8 + x46 <= 1
 clq573: x7 + x23 + x41 <= 1
 clq574: x22 + x117 + x159 <= 1
 clq575: x64 + x109 + x139 <= 1
 clq576: x40 + x64 + x109 <= 1
 clq577: x81 + x131 <= 1
 clq578: x75 + x85 <= 1
 clq579: x65 + x88 + x168 <= 1
 clq580: x80 + x132 + x147 <= 1
 clq581: x20 + x76 + x81 <= 1
 clq582: x34 + x66 + x70 <= 1
 clq583: x65 + x95 <= 1
 clq584: x100 + x124 + x165 <= 1
 clq585: x1 + x74 + x133 <= 1
 clq586: x29 + x45 + x50 <= 1
 clq587: x61 + x142 + x150 <= 1
 clq588: x71 + x152 <= 1
 clq589: x52 + x143 + x167 <= 1
 clq590: x53 + x115 + x168 <= 1
 clq591: x52 + x156 <= 1
 clq592: x85 + x105 + x147 <= 1
 clq593: x15 + x122 <= 1
 clq594: x10 + x16 + x166 <= 1
 clq595: x72 + x106 + x140 + x167 + x168 <= 1
 clq596: x42 + x67 + x89 + x92 <= 1
 clq597: x54 + x118 + x173 <= 1
 clq598: x99 + x105 + x154 <= 1
 clq599: x26 + x48 + x113 <= 1
 clq600: x12 + x48 + x107 <= 1
 clq601: x28 + x156 <= 1
 clq602: x32 + x98 + x117 <= 1
 clq603: x41 + x168 + x169 <= 1
 clq604: x28 + x99 + x105 <= 1
 clq605: x28 + x67 + x168 <= 1
 clq606: x61 + x82 + x97 <= 1
 clq607: x10 + x18 + x136 <= 1
 clq608: x130 + x140 + x155 <= 1
 clq609: x15 + x94 + x143 <= 1
 clq610: x98 + x100 + x165 <= 1
 clq611: x56 + x140 <= 1
 clq612: x55 + x172 <= 1
 clq613: x35 + x85 + x171 <= 1
 clq614: x50 + x126 <= 1
 clq615: x47 + x122 + x147 <= 1
 clq616: x17 + x26 + x105 <= 1
 clq617: x39 + x92 + x128 <= 1
 clq618: x12 + x33 <= 1
 clq619: x14 + x17 + x151 <= 1
 clq620: x19 + x98 + x113 <= 1
 clq621: x14 + x109 + x132 <= 1
 clq622: x39 + x59 + x61 <= 1
 clq623: x12 + x104 + x142 <= 1
 clq624: x17 + x87 + x95 <= 1
 clq625: x101 + x128 + x145 <= 1
 clq626: x5 + x55 + x138 <= 1
 clq627: x78 + x116 <= 1
 clq628: x37 + x136 <= 1
 clq629: x1 + x15 + x170 <= 1
 clq630: x91 + x161 + x168 <= 1
 clq631: x102 + x120 <= 1
 clq632: x44 + x90 <= 1
 clq633: x9 + x32 + x98 <= 1
 clq634: x42 + x140 + x167 <= 1
 clq635: x19 + x35 <= 1
 clq636: x91 + x104 <= 1
 clq637: x108 + x160 + x170 <= 1
 clq638: x57 + x160 + x170 <= 1
 clq639: x20 + x36 <= 1
 clq640: x32 + x98 + x155 <= 1
 clq641: x103 + x131 <= 1
 clq642: x56 + x104 + x135 <= 1
 clq643: x14 + x73 + x160 <= 1
 clq644: x5 + x23 + x41 <= 1
 clq645: x33 + x46 <= 1
 clq646: x16 + x34 <= 1
 clq647: x40 + x63 <= 1
 clq648: x52 + x135 + x160 <= 1
 clq649: x2 + x77 <= 1
 clq650: x48 + x175 <= 1
 clq651: x8 + x84 + x160 <= 1
 clq652: x17 + x106 + x170 <= 1
 clq653: x109 + x129 + x139 <= 1
 clq654: x130 + x142 + x150 <= 1
 clq655: x127 + x148 <= 1
 clq656: x36 + x44 + x164 <= 1
 clq657: x41 + x73 + x129 <= 1
 clq658: x65 + x74 + x111 <= 1
 clq659: x48 + x49 + x110 <= 1
 clq660: x46 + x83 + x137 <= 1
 clq661: x52 + x90 + x109 + x111 <= 1
 clq662: x22 + x31 + x33 <= 1
 clq663: x146 + x158 <= 1
 clq664: x27 + x49 + x65 <= 1
 clq665: x86 + x126 <= 1
 clq666: x16 + x29 + x45 <= 1
 clq667: x12 + x37 + x150 <= 1
 clq668: x18 + x61 + x136 <= 1
 clq669: x16 + x17 + x105 <= 1
 clq670: x15 + x52 + x160 <= 1
 clq671: x80 + x119 <= 1
 clq672: x44 + x133 <= 1
 clq673: x64 + x144 + x174 <= 1
 clq674: x1 + x11 + x73 + x170 <= 1
 clq675: x66 + x72 + x97 <= 1
 clq676: x19 + x63 + x81 <= 1
 clq677: x25 + x45 + x50 <= 1
 clq678: x112 + x134 + x171 <= 1
 clq679: x7 + x24 + x41 <= 1
 clq680: x44 + x163 <= 1
 clq681: x60 + x143 + x162 <= 1
 clq682: x11 + x165 <= 1
 clq683: x22 + x38 <= 1
 clq684: x20 + x128 + x165 <= 1
 clq685: x68 + x126 + x130 <= 1
 clq686: x35 + x97 + x159 <= 1
 clq687: x120 + x139 <= 1
 clq688: x48 + x63 + x69 <= 1
 clq689: x20 + x59 + x76 + x149 <= 1
 clq690: x3 + x34 + x62 + x160 <= 1
 clq691: x80 + x115 <= 1
 clq692: x48 + x69 + x110 + x141 <= 1
 clq693: x69 + x96 + x97 <= 1
 clq694: x96 + x117 <= 1
 clq695: x95 + x97 + x114 <= 1
 clq696: x3 + x6 + x61 <= 1
 clq697: x19 + x88 + x168 <= 1
 clq698: x40 + x43 + x91 <= 1
 clq699: x16 + x33 + x105 <= 1
 clq700: x25 + x70 + x123 <= 1
 clq701: x88 + x138 <= 1
 clq702: x5 + x40 <= 1
 clq703: x98 + x172 <= 1
 clq704: x114 + x151 <= 1
 clq705: x97 + x156 <= 1
 clq706: x75 + x129 + x139 <= 1
 clq707: x70 + x123 + x152 <= 1
 clq708: x124 + x150 <= 1
 clq709: x89 + x103 + x122 <= 1
 clq710: x3 + x30 + x62 <= 1
 clq711: x5 + x57 + x106 <= 1
 clq712: x34 + x35 + x153 <= 1
 clq713: x31 + x70 + x79 <= 1
 clq714: x50 + x95 <= 1
 clq715: x22 + x124 <= 1
 clq716: x91 + x118 + x161 <= 1
 clq717: x95 + x98 + x114 <= 1
 clq718: x7 + x41 + x168 <= 1
 clq719: x45 + x150 + x161 <= 1
 clq720: x40 + x99 + x109 <= 1
 clq721: x23 + x112 <= 1
 clq722: x107 + x126 <= 1
 clq723: x56 + x92 <= 1
 clq724: x24 + x133 + x148 <= 1
 clq725: x80 + x112 + x172 <= 1
 clq726: x24 + x79 + x137 <= 1
 clq727: x53 + x92 + x164 <= 1
 clq728: x120 + x130 <= 1
 clq729: x25 + x81 + x146 <= 1
 clq730: x57 + x64 <= 1
 clq731: x47 + x59 <= 1
 clq732: x26 + x55 + x70 + x138 <= 1
 clq733: x68 + x136 <= 1
 clq734: x103 + x132 <= 1
 clq735: x65 + x112 + x171 <= 1
 clq736: x87 + x157 + x167 <= 1
 clq737: x46 + x140 + x155 <= 1
 clq738: x51 + x89 + x122 <= 1
 clq739: x29 + x45 + x69 <= 1
 clq740: x102 + x136 + x173 <= 1
 clq741: x98 + x100 + x149 <= 1
 clq742: x68 + x100 + x124 <= 1
 clq743: x60 + x61 + x113 <= 1
 clq744: x9 + x149 + x157 <= 1
 clq745: x42 + x54 + x76 <= 1
 clq746: x31 + x107 + x155 <= 1
 clq747: x68 + x80 + x142 <= 1
 clq748: x40 + x42 + x64 <= 1
 clq749: x78 + x122 <= 1
 clq750: x42 + x76 + x149 <= 1
 clq751: x124 + x147 + x175 <= 1
 clq752: x117 + x120 <= 1
 clq753: x113 + x158 + x164 <= 1
 clq754: x75 + x169 <= 1
 clq755: x115 + x117 + x128 <= 1
 clq756: x24 + x58 <= 1
 clq757: x19 + x57 + x88 <= 1
 clq758: x8 + x35 <= 1
 clq759: x65 + x74 + x92 <= 1
 clq760: x56 + x100 + x104 <= 1
 clq761: x9 + x58 + x124 <= 1
 clq762: x89 + x117 <= 1
 clq763: x28 + x67 + x127 <= 1
 clq764: x72 + x123 <= 1
 clq765: x96 + x141 + x143 <= 1
 clq766: x23 + x31 + x71 <= 1
 clq767: x104 + x112 + x114 <= 1
 clq768: x25 + x44 + x85 <= 1
 clq769: x48 + x75 <= 1
 clq770: x5 + x138 + x139 <= 1
 clq771: x76 + x98 + x149 + x153 <= 1
 clq772: x5 + x92 + x147 <= 1
 clq773: x54 + x104 + x142 <= 1
 clq774: x61 + x147 <= 1
 clq775: x1 + x11 + x125 <= 1
 clq776: x63 + x101 + x118 <= 1
 clq777: x45 + x75 + x163 <= 1
 clq778: x96 + x109 + x158 <= 1
 clq779: x25 + x39 + x146 <= 1
 clq780: x26 + x70 + x96 <= 1
 clq781: x7 + x34 + x134 <= 1
 clq782: x108 + x127 + x134 <= 1
 clq783: x38 + x142 <= 1
 clq784: x111 + x134 + x171 <= 1
 clq785: x65 + x92 + x150 <= 1
 clq786: x109 + x111 + x147 <= 1
 clq787: x12 + x19 + x150 <= 1
 clq788: x15 + x121 + x143 <= 1
 clq789: x20 + x49 + x133 <= 1
 clq790: x111 + x134 + x146 <= 1
 clq791: x114 + x166 <= 1
 clq792: x62 + x130 + x154 <= 1
 clq793: x128 + x158 <= 1
 clq794: x97 + x145 + x172 <= 1
 clq795: x21 + x94 + x125 <= 1
 clq796: x113 + x169 <= 1
 clq797: x42 + x111 + x146 <= 1
 clq798: x2 + x8 + x150 <= 1
 clq799: x154 + x159 <= 1
 clq800: x37 + x59 + x149 <= 1
 clq801: x20 + x43 + x59 <= 1
 clq802: x2 + x66 <= 1
 clq803: x21 + x37 + x59 <= 1
 clq804: x9 + x133 <= 1
 clq805: x39 + x45 + x128 + x153 <= 1
 clq806: x18 + x54 + x142 <= 1
 clq807: x58 + x140 + x155 <= 1
 clq808: x82 + x141 <= 1
 clq809: x34 + x134 + x162 <= 1
 clq810: x16 + x30 + x57 <= 1
 clq811: x99 + x106 + x147 <= 1
 clq812: x105 + x130 + x154 <= 1
 clq813: x46 + x69 + x137 <= 1
 clq814: x22 + x136 + x167 <= 1
 clq815: x164 + x174 <= 1
 clq816: x64 + x103 + x122 <= 1
 clq817: x10 + x25 + x147 <= 1
 clq818: x17 + x27 + x101 <= 1
 clq819: x10 + x131 + x147 <= 1
 clq820: x7 + x41 + x134 <= 1
 clq821: x17 + x32 + x64 <= 1
 clq822: x51 + x111 + x165 <= 1
 clq823: x37 + x48 + x89 <= 1
 clq824: x2 + x67 + x154 <= 1
 clq825: x71 + x109 + x139 <= 1
 clq826: x44 + x92 + x164 <= 1
 clq827: x41 + x154 + x161 <= 1
 clq828: x62 + x79 + x156 <= 1
 clq829: x56 + x83 + x124 <= 1
 clq830: x109 + x112 + x132 <= 1
 clq831: x11 + x25 + x85 <= 1
 clq832: x17 + x25 + x64 <= 1
 clq833: x31 + x48 + x107 <= 1
 clq834: x26 + x55 + x118 <= 1
 clq835: x29 + x49 <= 1
 clq836: x45 + x66 + x69 <= 1
 clq837: x18 + x137 <= 1
 clq838: x22 + x33 + x105 <= 1
 clq839: x24 + x85 <= 1
 clq840: x20 + x149 + x157 <= 1
 clq841: x103 + x141 <= 1
 clq842: x36 + x99 <= 1
 clq843: x112 + x159 <= 1
 clq844: x13 + x132 + x147 <= 1
 clq845: x93 + x165 <= 1
 clq846: x129 + x138 + x139 <= 1
 clq847: x52 + x59 + x135 <= 1
 clq848: x155 + x161 <= 1
 clq849: x14 + x20 <= 1
 clq850: x70 + x145 <= 1
 clq851: x132 + x144 <= 1
 clq852: x99 + x160 + x162 <= 1
 clq853: x6 + x10 + x16 <= 1
 clq854: x10 + x21 + x167 <= 1
 clq855: x87 + x145 <= 1
 clq856: x53 + x88 + x168 <= 1
 clq857: x1 + x21 + x37 <= 1
 clq858: x4 + x117 + x147 <= 1
 clq859: x16 + x74 + x119 <= 1
 clq860: x19 + x56 <= 1
 clq861: x49 + x82 + x113 <= 1
 clq862: x14 + x52 + x82 <= 1
 clq863: x54 + x123 + x142 <= 1
 clq864: x45 + x52 + x75 <= 1
 clq865: x37 + x57 + x118 <= 1
Bounds
 0 <= x1 <= 1
 0 <= x2 <= 1
 0 <= x3 <= 1
 0 <= x4 <= 1
 0 <= x5 <= 1
 0 <= x6 <= 1
 0 <= x7 <= 1
 0 <= x8 <= 1
 0 <= x9 <= 1
 0 <= x10 <= 1
 0 <= x11 <= 1
 0 <= x12 <= 1
 0 <= x13 <= 1
 0 <= x14 <= 1
 0 <= x15 <= 1
 0 <= x16 <= 1
 0 <= x17 <= 1
 0 <= x18 <= 1
 0 <= x19 <= 1
 0 <= x20 <= 1
 0 <= x21 <= 1
 0 <= x22 <= 1
 0 <= x23 <= 1
 0 <= x24 <= 1
 0 <= x25 <= 1
 0 <= x26 <= 1
 0 <= x27 <= 1
 0 <= x28 <= 1
 0 <= x29 <= 1
 0 <= x30 <= 1
 0 <= x31 <= 1
 0 <= x32 <= 1
 0 <= x33 <= 1
 0 <= x34 <= 1
 0 <= x35 <= 1
 0 <= x36 <= 1
 0 <= x37 <= 1
 0 <= x38 <= 1
 0 <= x39 <= 1
 0 <= x40 <= 1
 0 <= x41 <= 1
 0 <= x42 <= 1
 0 <= x43 <= 1
 0 <= x44 <= 1
 0 <= x45 <= 1
 0 <= x46 <= 1
 0 <= x47 <= 1
 0 <= x48 <= 1
 0 <= x49 <= 1
 0 <= x50 <= 1
 0 <= x51 <= 1
 0 <= x52 <= 1
 0 <= x53 <= 1
 0 <= x54 <= 1
 0 <= x55 <= 1
 0 <= x56 <= 1
 0 <= x57 <= 1
 0 <= x58 <= 1
 0 <= x59 <= 1
 0 <= x60 <= 1
 0 <= x61 <= 1
 0 <= x62 <= 1
 0 <= x63 <= 1
 0 <= x64 <= 1
 0 <= x65 <= 1
 0 <= x66 <= 1
 0 <= x67 <= 1
 0 <= x68 <= 1
 0 <= x69 <= 1
 0 <= x70 <= 1
 0 <= x71 <= 1
 0 <= x72 <= 1
 0 <= x73 <= 1
 0 <= x74 <= 1
 0 <= x75 <= 1
 0 <= x76 <= 1
 0 <= x77 <= 1
 0 <= x78 <= 1
 0 <= x79 <= 1
 0 <= x80 <= 1
 0 <= x81 <= 1
 0 <= x82 <= 1
 0 <= x83 <= 1
 0 <= x84 <= 1
 0 <= x85 <= 1
 0 <= x86 <= 1
 0 <= x87 <= 1
 0 <= x88 <= 1
 0 <= x89 <= 1
 0 <= x90 <= 1
 0 <= x91 <= 1
 0 <= x92 <= 1
 0 <= x93 <= 1
 0 <= x94 <= 1
 0 <= x95 <= 1
 0 <= x96 <= 1
 0 <= x97 <= 1
 0 <= x98 <= 1
 0 <= x99 <= 1
 0 <= x100 <= 1
 0 <= x101 <= 1
 0 <= x102 <= 1
 0 <= x103 <= 1
 0 <= x104 <= 1
 0 <= x105 <= 1
 0 <= x106 <= 1
 0 <= x107 <= 1
 0 <= x108 <= 1
 0 <= x109 <= 1
 0 <= x110 <= 1
 0 <= x111 <= 1
 0 <= x112 <= 1
 0 <= x113 <= 1
 0 <= x114 <= 1
 0 <= x115 <= 1
 0 <= x116 <= 1
 0 <= x117 <= 1
 0 <= x118 <= 1
 0 <= x119 <= 1
 0 <= x120 <= 1
 0 <= x121 <= 1
 0 <= x122 <= 1
 0 <= x123 <= 1
 0 <= x124 <= 1
 0 <= x125 <= 1
 0 <= x126 <= 1
 0 <= x127 <= 1
 0 <= x128 <= 1
 0 <= x129 <= 1
 0 <= x130 <= 1
 0 <= x131 <= 1
 0 <= x132 <= 1
 0 <= x133 <= 1
 0 <= x134 <= 1
 0 <= x135 <= 1
 0 <= x136 <= 1
 0 <= x137 <= 1
 0 <= x138 <= 1
 0 <= x139 <= 1
 0 <= x140 <= 1
 0 <= x141 <= 1
 0 <= x142 <= 1
 0 <= x143 <= 1
 0 <= x144 <= 1
 0 <= x145 <= 1
 0 <= x146 <= 1
 0 <= x147 <= 1
 0 <= x148 <= 1
 0 <= x149 <= 1
 0 <= x150 <= 1
 0 <= x151 <= 1
 0 <= x152 <= 1
 0 <= x153 <= 1
 0 <= x154 <= 1
 0 <= x155 <= 1
 0 <= x156 <= 1
 0 <= x157 <= 1
 0 <= x158 <= 1
 0 <= x159 <= 1
 0 <= x160 <= 1
 0 <= x161 <= 1
 0 <= x162 <= 1
 0 <= x163 <= 1
 0 <= x164 <= 1
 0 <= x165 <= 1
 0 <= x166 <= 1
 0 <= x167 <= 1
 0 <= x168 <= 1
 0 <= x169 <= 1
 0 <= x170 <= 1
 0 <= x171 <= 1
 0 <= x172 <= 1
 0 <= x173 <= 1
 0 <= x174 <= 1
 0 <= x175 <= 1
Binaries
 x1  x2  x3  x4  x5  x6  x7  x8  x9  x10  x11  x12  x13  x14  x15  x16  x17 
 x18  x19  x20  x21  x22  x23  x24  x25  x26  x27  x28  x29  x30  x31  x32 
 x33  x34  x35  x36  x37  x38  x39  x40  x41  x42  x43  x44  x45  x46  x47 
 x48  x49  x50  x51  x52  x53  x54  x55  x56  x57  x58  x59  x60  x61  x62 
 x63  x64  x65  x66  x67  x68  x69  x70  x71  x72  x73  x74  x75  x76  x77 
 x78  x79  x80  x81  x82  x83  x84  x85  x86  x87  x88  x89  x90  x91  x92 
 x93  x94  x95  x96  x97  x98  x99  x100  x101  x102  x103  x104  x105  x106 
 x107  x108  x109  x110  x111  x112  x113  x114  x115  x116  x117  x118  x119 
 x120  x121  x122  x123  x124  x125  x126  x127  x128  x129  x130  x131  x132 
 x133  x134  x135  x136  x137  x138  x139  x140  x141  x142  x143  x144  x145 
 x146  x147  x148  x149  x150  x151  x152  x153  x154  x155  x156  x157  x158 
 x159  x160  x161  x162  x163  x164  x165  x166  x167  x168  x169  x170  x171 
 x172  x173  x174  x175 
End
